networks/simple/simple.txt
open networks/simple/simple.sol: no such file or directory
Time taken running everything: 0 seconds
